seed= 2052018 ;
N= 630 ;
M= 3 ;
F= 3 ;
K= 8 ;
T= 114 ;

p=[ 4 4 4 4 4 4 4 4 4 4 4 4 4 4 4 4 4 4 4 4 4 4 4 4 4 4 4 4 4 4 4 4 4 4 4 4 4 4 4 4 4 4 4 4 4 4 4 4 4 4 4 4 4 4 4 4 4 4 4 4 4 4 4 4 4 4 4 4 4 4 4 4 4 4 4 4 4 4 4 4 4 4 4 4 4 4 4 4 4 4 4 4 4 4 4 4 4 4 4 4 4 4 4 4 4 4 4 4 4 4 4 4 4 4 4 4 4 4 4 4 4 4 4 4 4 4 4 4 4 4 4 4 4 4 4 4 4 4 4 4 4 4 4 4 4 4 4 4 4 4 4 4 4 4 4 4 4 4 4 4 4 4 4 4 4 4 4 4 4 4 4 4 4 4 4 4 4 4 4 4 4 4 4 4 4 4 4 4 4 4 4 4 4 4 4 4 4 4 4 4 4 4 4 4 4 4 4 4 4 4 2 2 2 2 2 2 2 2 2 2 2 2 2 2 2 2 2 2 2 2 2 2 2 2 2 2 2 2 2 2 2 2 2 2 2 2 2 2 2 2 2 2 2 2 2 2 2 2 2 2 2 2 2 2 2 2 2 2 2 2 2 2 2 2 2 2 2 2 2 2 2 2 2 2 2 2 2 2 2 2 2 2 2 2 2 2 2 2 2 2 2 2 2 2 2 2 2 2 2 2 2 2 2 2 2 2 2 2 2 2 2 2 2 2 2 2 2 2 2 2 2 2 2 2 2 2 2 2 2 2 2 2 2 2 2 2 2 2 2 2 2 2 2 2 2 2 2 2 2 2 2 2 2 2 2 2 2 2 2 2 2 2 2 2 2 2 2 2 2 2 2 2 2 2 2 2 2 2 2 2 2 2 2 2 2 2 2 2 2 2 2 2 2 2 2 2 2 2 2 2 2 2 2 2 2 2 2 2 2 2 4 4 4 4 4 4 4 4 4 4 4 4 4 4 4 4 4 4 4 4 4 4 4 4 4 4 4 4 4 4 4 4 4 4 4 4 4 4 4 4 4 4 4 4 4 4 4 4 4 4 4 4 4 4 4 4 4 4 4 4 4 4 4 4 4 4 4 4 4 4 4 4 4 4 4 4 4 4 4 4 4 4 4 4 4 4 4 4 4 4 4 4 4 4 4 4 4 4 4 4 4 4 4 4 4 4 4 4 4 4 4 4 4 4 4 4 4 4 4 4 4 4 4 4 4 4 4 4 4 4 4 4 4 4 4 4 4 4 4 4 4 4 4 4 4 4 4 4 4 4 4 4 4 4 4 4 4 4 4 4 4 4 4 4 4 4 4 4 4 4 4 4 4 4 4 4 4 4 4 4 4 4 4 4 4 4 4 4 4 4 4 4 4 4 4 4 4 4 4 4 4 4 4 4 4 4 4 4 4 4 ];
r=[ 0 0 0 0 0 0 0 0 0 0 0 0 0 0 0 0 0 0 0 0 0 0 0 0 0 0 0 0 0 0 0 0 0 0 0 0 0 0 0 0 0 0 0 0 0 0 0 0 0 0 0 0 0 0 0 0 0 0 0 0 0 0 0 0 0 0 0 0 0 0 0 0 0 0 0 0 0 0 0 0 0 0 0 0 0 0 0 0 0 0 0 0 0 0 0 0 0 0 0 0 0 0 0 0 0 0 0 0 0 0 0 0 0 0 0 0 0 0 0 0 0 0 0 0 0 0 0 0 0 0 0 0 0 0 0 0 0 0 0 0 0 0 0 0 0 0 0 0 0 0 0 0 0 0 0 0 0 0 0 0 0 0 0 0 0 0 0 0 0 0 0 0 0 0 0 0 0 0 0 0 0 0 0 0 0 0 0 0 0 0 0 0 0 0 0 0 0 0 0 0 0 0 0 0 0 0 0 0 0 0 0 0 0 0 0 0 0 0 0 0 0 0 0 0 0 0 0 0 0 0 0 0 0 0 0 0 0 0 0 0 0 0 0 0 0 0 0 0 0 0 0 0 0 0 0 0 0 0 0 0 0 0 0 0 0 0 0 0 0 0 0 0 0 0 0 0 0 0 0 0 0 0 0 0 0 0 0 0 0 0 0 0 0 0 0 0 0 0 0 0 0 0 0 0 0 0 0 0 0 0 0 0 0 0 0 0 0 0 0 0 0 0 0 0 0 0 0 0 0 0 0 0 0 0 0 0 0 0 0 0 0 0 0 0 0 0 0 0 0 0 0 0 0 0 0 0 0 0 0 0 0 0 0 0 0 0 0 0 0 0 0 0 0 0 0 0 0 0 0 0 0 0 0 0 0 0 0 0 0 0 0 0 0 0 0 0 0 0 0 0 0 0 0 0 0 0 0 0 0 0 0 0 0 0 0 0 0 0 0 0 0 0 0 0 0 0 0 0 0 0 0 0 0 0 0 0 0 0 0 0 0 0 0 0 0 0 0 0 0 0 0 0 0 0 0 0 0 0 0 0 0 0 0 0 0 0 0 0 0 0 0 0 0 0 0 0 0 0 0 0 0 0 0 0 0 0 0 0 0 0 0 0 0 0 0 0 0 0 0 0 0 0 0 0 0 0 0 0 0 0 0 0 0 0 0 0 0 0 0 0 0 0 0 0 0 0 0 0 0 0 0 0 0 0 0 0 0 0 0 0 0 0 0 0 0 0 0 0 0 0 0 0 0 0 0 0 0 0 0 0 0 0 0 0 0 0 0 0 0 0 0 0 0 0 0 0 0 0 0 0 0 0 0 0 0 0 0 0 0 0 0 0 0 0 0 0 0 0 0 0 0 0 0 0 0 0 0 0 0 0 0 0 0 0 0 0 0 0 0 0 0 0 0 0 0 0 0 0 0 0 ];
d=[ 56 63 91 110 44 27 26 114 71 19 114 36 66 111 118 125 71 42 121 55 75 4 54 47 55 60 82 55 81 111 114 36 86 83 26 101 58 1 40 70 125 120 62 58 98 80 107 5 83 72 71 74 38 127 63 123 30 79 122 8 3 42 62 28 66 115 128 108 106 123 71 90 62 9 65 11 96 77 111 9 56 86 64 82 79 84 18 127 100 106 28 82 103 65 121 60 56 75 52 80 52 129 113 106 109 98 15 13 93 6 24 73 59 40 95 34 6 12 47 35 104 69 97 3 125 60 57 80 69 124 2 111 73 68 102 102 18 28 50 130 72 115 88 22 13 38 108 1 104 100 34 104 99 109 47 50 29 88 56 49 64 44 94 88 68 102 28 79 118 77 96 21 2 81 130 122 85 69 67 74 80 125 8 108 92 21 76 48 119 28 118 46 53 129 4 36 113 49 29 84 92 83 128 47 29 19 127 31 96 104 49 26 54 110 16 73 38 109 67 74 124 72 129 67 29 62 49 72 8 41 60 53 104 130 70 130 23 66 37 116 48 100 49 47 30 96 22 75 112 5 21 57 87 100 91 24 102 72 32 61 29 124 61 34 102 84 31 73 67 8 38 102 59 27 79 8 97 37 106 36 3 14 117 72 96 41 87 46 2 6 41 50 9 68 21 28 87 31 98 92 61 15 121 24 32 107 35 65 58 43 1 66 17 63 90 79 63 70 53 111 5 92 13 104 123 52 110 18 69 102 15 123 90 106 130 33 120 111 94 26 69 37 18 56 77 128 123 23 13 83 105 18 69 78 66 69 39 8 54 68 18 117 38 119 21 85 94 4 25 95 119 112 66 60 121 114 91 69 81 63 85 124 48 108 76 28 106 111 34 84 89 130 14 45 76 15 2 105 20 22 65 64 22 30 6 34 26 32 115 127 114 43 75 122 129 46 85 55 21 77 3 49 5 105 19 32 119 127 1 69 100 125 11 73 95 36 124 1 62 51 90 129 21 23 56 56 20 45 72 22 9 0 126 50 40 108 51 116 109 27 3 61 46 68 47 126 55 3 44 116 44 62 71 51 50 79 86 18 70 32 33 41 28 90 67 51 49 39 73 49 70 32 106 53 83 119 110 79 93 118 2 124 100 73 98 117 101 40 43 53 113 120 45 12 113 49 6 69 40 14 69 93 108 109 97 129 122 2 119 37 121 56 119 11 14 45 127 72 91 49 18 23 3 39 67 12 52 56 4 3 34 66 36 6 17 14 41 62 55 18 42 55 103 8 2 19 47 17 35 7 119 131 84 6 7 99 79 40 14 43 40 33 102 46 121 115 68 11 119 3 58 122 99 37 84 75 67 71 114 13 41 130 1 0 4 129 42 131 74 40 85 123 46 59 68 118 24 76 21 121 4 120 91 118 59 39 122 51 90 75 ];
s=[ 1 1 1 1 1 1 1 1 1 1 1 1 1 1 1 1 1 1 1 1 1 1 1 1 1 1 1 1 1 1 1 1 1 1 1 1 1 1 1 1 1 1 1 1 1 1 1 1 1 1 1 1 1 1 1 1 1 1 1 1 1 1 1 1 1 1 1 1 1 1 1 1 1 1 1 1 1 1 1 1 1 1 1 1 1 1 1 1 1 1 1 1 1 1 1 1 1 1 1 1 1 1 1 1 1 1 1 1 1 1 1 1 1 1 1 1 1 1 1 1 1 1 1 1 1 1 1 1 1 1 1 1 1 1 1 1 1 1 1 1 1 1 1 1 1 1 1 1 1 1 1 1 1 1 1 1 1 1 1 1 1 1 1 1 1 1 1 1 1 1 1 1 1 1 1 1 1 1 1 1 1 1 1 1 1 1 1 1 1 1 1 1 1 1 1 1 1 1 1 1 1 1 1 1 1 1 1 1 1 1 1 1 1 1 1 1 1 1 1 1 1 1 1 1 1 1 1 1 1 1 1 1 1 1 1 1 1 1 1 1 1 1 1 1 1 1 1 1 1 1 1 1 1 1 1 1 1 1 1 1 1 1 1 1 1 1 1 1 1 1 1 1 1 1 1 1 1 1 1 1 1 1 1 1 1 1 1 1 1 1 1 1 1 1 1 1 1 1 1 1 1 1 1 1 1 1 1 1 1 1 1 1 1 1 1 1 1 1 1 1 1 1 1 1 1 1 1 1 1 1 1 1 1 1 1 1 1 1 1 1 1 1 1 1 1 1 1 1 1 1 1 1 1 1 1 1 1 1 1 1 1 1 1 1 1 1 1 1 1 1 1 1 1 1 1 1 1 1 1 1 1 1 1 1 1 1 1 1 1 1 1 1 1 1 1 1 1 1 1 1 1 1 1 1 1 1 1 1 1 1 1 1 1 1 1 1 1 1 1 1 1 1 1 1 1 1 1 1 1 1 1 1 1 1 1 1 1 1 1 1 1 1 1 1 1 1 1 1 1 1 1 1 1 1 1 1 1 1 1 1 1 1 1 1 1 1 1 1 1 1 1 1 1 1 1 1 1 1 1 1 1 1 1 1 1 1 1 1 1 1 1 1 1 1 1 1 1 1 1 1 1 1 1 1 1 1 1 1 1 1 1 1 1 1 1 1 1 1 1 1 1 1 1 1 1 1 1 1 1 1 1 1 1 1 1 1 1 1 1 1 1 1 1 1 1 1 1 1 1 1 1 1 1 1 1 1 1 1 1 1 1 1 1 1 1 1 1 1 1 1 1 1 1 1 1 1 1 1 1 1 1 1 1 1 1 1 1 1 1 1 1 1 1 1 1 1 1 1 1 1 1 1 1 1 1 1 1 1 1 1 1 1 1 1 1 1 1 1 1 1 1 1 1 1 1 1 1 1 1 1 ];
w=[ 4 1 5 4 2 4 2 1 2 1 4 3 5 2 3 2 4 5 3 5 5 1 5 3 5 1 3 4 2 1 5 2 2 4 5 4 3 2 5 5 3 1 2 2 1 3 3 4 4 5 1 4 3 5 4 4 2 2 1 4 5 2 4 4 3 3 2 4 5 2 3 1 3 3 1 2 4 1 2 3 1 5 3 4 2 1 1 4 2 5 4 2 4 3 3 5 3 3 1 4 4 3 1 5 2 1 1 4 5 1 1 1 2 4 1 2 1 3 3 1 2 2 4 2 2 2 2 2 5 4 5 4 2 4 3 5 1 4 4 2 5 3 3 2 5 5 5 4 1 3 4 1 3 1 3 5 1 3 1 2 5 1 1 1 3 4 2 4 4 3 2 2 4 5 1 1 4 5 4 4 2 1 1 4 5 3 2 4 1 2 1 4 5 4 1 1 1 2 1 2 4 1 5 4 2 2 3 1 1 5 1 4 3 1 3 1 4 5 4 2 3 1 5 2 3 2 1 4 1 2 1 5 2 3 2 4 5 3 5 3 3 1 2 1 4 5 3 3 3 2 2 4 1 3 1 5 1 5 2 5 2 2 1 2 2 4 4 5 2 1 1 5 5 2 4 3 2 5 4 3 3 1 5 5 4 3 1 1 4 4 1 3 1 2 2 5 1 3 3 3 4 4 3 2 5 5 1 5 2 1 2 2 3 2 5 2 4 5 3 1 5 5 5 1 2 4 4 1 4 4 2 4 4 4 1 4 5 5 2 4 5 1 2 1 1 5 3 1 3 4 4 3 3 4 1 5 4 4 3 1 2 2 2 5 5 1 2 5 1 5 2 3 1 3 3 4 4 4 3 5 2 1 3 4 5 3 1 1 4 5 2 3 3 1 2 5 1 3 2 4 2 3 1 4 5 3 5 1 4 3 4 2 4 2 5 5 1 3 5 5 3 5 1 2 2 4 1 2 2 3 1 3 3 5 3 1 4 1 1 4 2 4 2 1 5 4 4 5 4 2 1 5 3 5 2 2 5 3 5 1 5 1 5 2 3 4 3 4 1 2 4 1 1 3 4 3 4 5 3 4 5 1 2 3 2 1 1 2 3 4 2 4 1 3 2 4 2 3 4 4 1 5 1 4 5 1 4 2 2 4 2 2 1 1 4 5 5 4 4 5 2 3 1 5 4 3 1 5 5 4 3 2 5 2 2 5 2 2 5 3 1 4 3 4 5 2 4 4 5 3 1 1 1 3 4 1 4 3 1 2 1 2 5 5 3 3 2 2 1 1 3 3 4 5 3 4 5 1 2 1 4 4 4 1 4 1 2 4 5 4 4 4 2 3 5 3 3 4 2 4 4 3 3 2 4 3 3 2 4 4 1 2 5 4 5 2 5 5 5 5 3 3 2 5 4 5 5 2 3 5 ];
f=[ 1 1 1 1 1 1 1 1 1 1 1 1 1 1 1 1 1 1 1 1 1 1 1 1 1 1 1 1 1 1 1 1 1 1 1 1 1 1 1 1 1 1 1 1 1 1 1 1 1 1 1 1 1 1 1 1 1 1 1 1 1 1 1 1 1 1 1 1 1 1 1 1 1 1 1 1 1 1 1 1 1 1 1 1 1 1 1 1 1 1 1 1 1 1 1 1 1 1 1 1 1 1 1 1 1 1 1 1 1 1 1 1 1 1 1 1 1 1 1 1 1 1 1 1 1 1 1 1 1 1 1 1 1 1 1 1 1 1 1 1 1 1 1 1 1 1 1 1 1 1 1 1 1 1 1 1 1 1 1 1 1 1 1 1 1 1 1 1 1 1 1 1 1 1 1 1 1 1 1 1 1 1 1 1 1 1 1 1 1 1 1 1 1 1 1 1 1 1 1 1 1 1 1 1 1 1 1 1 1 1 2 2 2 2 2 2 2 2 2 2 2 2 2 2 2 2 2 2 2 2 2 2 2 2 2 2 2 2 2 2 2 2 2 2 2 2 2 2 2 2 2 2 2 2 2 2 2 2 2 2 2 2 2 2 2 2 2 2 2 2 2 2 2 2 2 2 2 2 2 2 2 2 2 2 2 2 2 2 2 2 2 2 2 2 2 2 2 2 2 2 2 2 2 2 2 2 2 2 2 2 2 2 2 2 2 2 2 2 2 2 2 2 2 2 2 2 2 2 2 2 2 2 2 2 2 2 2 2 2 2 2 2 2 2 2 2 2 2 2 2 2 2 2 2 2 2 2 2 2 2 2 2 2 2 2 2 2 2 2 2 2 2 2 2 2 2 2 2 2 2 2 2 2 2 2 2 2 2 2 2 2 2 2 2 2 2 2 2 2 2 2 2 2 2 2 2 2 2 2 2 2 2 2 2 2 2 2 2 2 2 3 3 3 3 3 3 3 3 3 3 3 3 3 3 3 3 3 3 3 3 3 3 3 3 3 3 3 3 3 3 3 3 3 3 3 3 3 3 3 3 3 3 3 3 3 3 3 3 3 3 3 3 3 3 3 3 3 3 3 3 3 3 3 3 3 3 3 3 3 3 3 3 3 3 3 3 3 3 3 3 3 3 3 3 3 3 3 3 3 3 3 3 3 3 3 3 3 3 3 3 3 3 3 3 3 3 3 3 3 3 3 3 3 3 3 3 3 3 3 3 3 3 3 3 3 3 3 3 3 3 3 3 3 3 3 3 3 3 3 3 3 3 3 3 3 3 3 3 3 3 3 3 3 3 3 3 3 3 3 3 3 3 3 3 3 3 3 3 3 3 3 3 3 3 3 3 3 3 3 3 3 3 3 3 3 3 3 3 3 3 3 3 3 3 3 3 3 3 3 3 3 3 3 3 3 3 3 3 3 3 ];

e1=[ 10 10 10 10 10 10 10 10 10 10 10 10 10 10 10 10 10 10 10 10 10 10 10 10 10 10 10 10 10 10 10 10 10 10 10 10 10 10 10 10 10 10 10 10 10 10 10 10 10 10 10 10 10 10 10 10 10 8 8 8 8 8 8 8 8 8 8 8 8 8 8 8 8 8 8 8 8 8 8 8 8 8 8 8 8 8 8 8 8 8 8 8 8 8 8 8 8 8 8 8 8 8 8 8 8 8 8 8 8 8 8 8 8 8 ];
e2=[ 10 10 10 10 10 10 10 10 10 10 10 10 10 10 10 10 10 10 10 10 10 10 10 10 10 10 10 10 10 10 10 10 10 10 10 10 10 10 9 9 9 9 9 9 9 9 9 9 9 9 9 9 9 9 9 9 9 8 8 8 8 8 8 8 8 8 8 8 8 8 8 8 8 8 8 8 8 8 8 8 8 8 8 8 8 8 8 8 8 8 8 8 8 8 8 9 9 9 9 9 9 9 9 9 9 9 9 9 9 9 9 9 9 9 ];